(set-info :category "industrial")
(set-info :status sat)
(declare-fun x03 () (_ BitVec 8))
(declare-fun x05 () (_ BitVec 8))
(declare-fun x06 () (_ BitVec 8))
(declare-fun x07 () (_ BitVec 8))
(declare-fun x08 () (_ BitVec 8))
(declare-fun x10 () (_ BitVec 8))
(declare-fun x13 () (_ BitVec 8))
(declare-fun x16 () (_ BitVec 8))
(declare-fun x17 () (_ BitVec 8))
(declare-fun x20 () (_ BitVec 8))
(declare-fun x21 () (_ BitVec 8))
(declare-fun x23 () (_ BitVec 8))
(declare-fun x25 () (_ BitVec 8))
(declare-fun x26 () (_ BitVec 8))
(declare-fun x28 () (_ BitVec 8))
(declare-fun x30 () (_ BitVec 8))
(declare-fun x31 () (_ BitVec 8))
(declare-fun x32 () (_ BitVec 8))
(declare-fun x33 () (_ BitVec 8))
(declare-fun x34 () (_ BitVec 8))
(declare-fun x38 () (_ BitVec 8))
(declare-fun x41 () (_ BitVec 8))
(declare-fun x42 () (_ BitVec 8))
(declare-fun x44 () (_ BitVec 8))
(declare-fun x45 () (_ BitVec 8))
(declare-fun x46 () (_ BitVec 8))
(declare-fun x54 () (_ BitVec 8))
(declare-fun x55 () (_ BitVec 8))
(declare-fun x56 () (_ BitVec 8))
(declare-fun x57 () (_ BitVec 8))
(declare-fun x58 () (_ BitVec 8))
(declare-fun x60 () (_ BitVec 8))
(declare-fun x62 () (_ BitVec 8))
(declare-fun x64 () (_ BitVec 8))
(declare-fun x65 () (_ BitVec 8))
(declare-fun x66 () (_ BitVec 8))
(declare-fun x68 () (_ BitVec 8))
(declare-fun x72 () (_ BitVec 8))
(declare-fun x73 () (_ BitVec 8))
(declare-fun x74 () (_ BitVec 8))
(declare-fun x75 () (_ BitVec 8))
(declare-fun x76 () (_ BitVec 8))
(declare-fun x80 () (_ BitVec 8))
(declare-fun x81 () (_ BitVec 8))
(declare-fun x82 () (_ BitVec 8))
(declare-fun x83 () (_ BitVec 8))
(declare-fun x86 () (_ BitVec 8))
(declare-fun x87 () (_ BitVec 8))
(assert (bvult x03 (_ bv9 8)))
(assert (bvult x05 (_ bv9 8)))
(assert (bvult x06 (_ bv9 8)))
(assert (bvult x07 (_ bv9 8)))
(assert (bvult x08 (_ bv9 8)))
(assert (bvult x10 (_ bv9 8)))
(assert (bvult x13 (_ bv9 8)))
(assert (bvult x16 (_ bv9 8)))
(assert (bvult x17 (_ bv9 8)))
(assert (bvult x20 (_ bv9 8)))
(assert (bvult x21 (_ bv9 8)))
(assert (bvult x23 (_ bv9 8)))
(assert (bvult x25 (_ bv9 8)))
(assert (bvult x26 (_ bv9 8)))
(assert (bvult x28 (_ bv9 8)))
(assert (bvult x30 (_ bv9 8)))
(assert (bvult x31 (_ bv9 8)))
(assert (bvult x32 (_ bv9 8)))
(assert (bvult x33 (_ bv9 8)))
(assert (bvult x34 (_ bv9 8)))
(assert (bvult x38 (_ bv9 8)))
(assert (bvult x41 (_ bv9 8)))
(assert (bvult x42 (_ bv9 8)))
(assert (bvult x44 (_ bv9 8)))
(assert (bvult x45 (_ bv9 8)))
(assert (bvult x46 (_ bv9 8)))
(assert (bvult x54 (_ bv9 8)))
(assert (bvult x55 (_ bv9 8)))
(assert (bvult x56 (_ bv9 8)))
(assert (bvult x57 (_ bv9 8)))
(assert (bvult x58 (_ bv9 8)))
(assert (bvult x60 (_ bv9 8)))
(assert (bvult x62 (_ bv9 8)))
(assert (bvult x64 (_ bv9 8)))
(assert (bvult x65 (_ bv9 8)))
(assert (bvult x66 (_ bv9 8)))
(assert (bvult x68 (_ bv9 8)))
(assert (bvult x72 (_ bv9 8)))
(assert (bvult x73 (_ bv9 8)))
(assert (bvult x74 (_ bv9 8)))
(assert (bvult x75 (_ bv9 8)))
(assert (bvult x76 (_ bv9 8)))
(assert (bvult x80 (_ bv9 8)))
(assert (bvult x81 (_ bv9 8)))
(assert (bvult x82 (_ bv9 8)))
(assert (bvult x83 (_ bv9 8)))
(assert (bvult x86 (_ bv9 8)))
(assert (bvult x87 (_ bv9 8)))
(assert (not (= (_ bv3 8) (_ bv6 8))))
(assert (not (= (_ bv3 8) (_ bv4 8))))
(assert (not (= (_ bv3 8) x03)))
(assert (not (= (_ bv3 8) (_ bv5 8))))
(assert (not (= (_ bv3 8) x05)))
(assert (not (= (_ bv3 8) x06)))
(assert (not (= (_ bv3 8) x07)))
(assert (not (= (_ bv3 8) x08)))
(assert (not (= (_ bv6 8) (_ bv4 8))))
(assert (not (= (_ bv6 8) x03)))
(assert (not (= (_ bv6 8) (_ bv5 8))))
(assert (not (= (_ bv6 8) x05)))
(assert (not (= (_ bv6 8) x06)))
(assert (not (= (_ bv6 8) x07)))
(assert (not (= (_ bv6 8) x08)))
(assert (not (= (_ bv4 8) x03)))
(assert (not (= (_ bv4 8) (_ bv5 8))))
(assert (not (= (_ bv4 8) x05)))
(assert (not (= (_ bv4 8) x06)))
(assert (not (= (_ bv4 8) x07)))
(assert (not (= (_ bv4 8) x08)))
(assert (not (= x03 (_ bv5 8))))
(assert (not (= x03 x05)))
(assert (not (= x03 x06)))
(assert (not (= x03 x07)))
(assert (not (= x03 x08)))
(assert (not (= (_ bv5 8) x05)))
(assert (not (= (_ bv5 8) x06)))
(assert (not (= (_ bv5 8) x07)))
(assert (not (= (_ bv5 8) x08)))
(assert (not (= x05 x06)))
(assert (not (= x05 x07)))
(assert (not (= x05 x08)))
(assert (not (= x06 x07)))
(assert (not (= x06 x08)))
(assert (not (= x07 x08)))
(assert (not (= x10 (_ bv8 8))))
(assert (not (= x10 (_ bv1 8))))
(assert (not (= x10 x13)))
(assert (not (= x10 (_ bv6 8))))
(assert (not (= x10 (_ bv4 8))))
(assert (not (= x10 x16)))
(assert (not (= x10 x17)))
(assert (not (= x10 (_ bv7 8))))
(assert (not (= (_ bv8 8) (_ bv1 8))))
(assert (not (= (_ bv8 8) x13)))
(assert (not (= (_ bv8 8) (_ bv6 8))))
(assert (not (= (_ bv8 8) (_ bv4 8))))
(assert (not (= (_ bv8 8) x16)))
(assert (not (= (_ bv8 8) x17)))
(assert (not (= (_ bv8 8) (_ bv7 8))))
(assert (not (= (_ bv1 8) x13)))
(assert (not (= (_ bv1 8) (_ bv6 8))))
(assert (not (= (_ bv1 8) (_ bv4 8))))
(assert (not (= (_ bv1 8) x16)))
(assert (not (= (_ bv1 8) x17)))
(assert (not (= (_ bv1 8) (_ bv7 8))))
(assert (not (= x13 (_ bv6 8))))
(assert (not (= x13 (_ bv4 8))))
(assert (not (= x13 x16)))
(assert (not (= x13 x17)))
(assert (not (= x13 (_ bv7 8))))
(assert (not (= (_ bv6 8) (_ bv4 8))))
(assert (not (= (_ bv6 8) x16)))
(assert (not (= (_ bv6 8) x17)))
(assert (not (= (_ bv6 8) (_ bv7 8))))
(assert (not (= (_ bv4 8) x16)))
(assert (not (= (_ bv4 8) x17)))
(assert (not (= (_ bv4 8) (_ bv7 8))))
(assert (not (= x16 x17)))
(assert (not (= x16 (_ bv7 8))))
(assert (not (= x17 (_ bv7 8))))
(assert (not (= x20 x21)))
(assert (not (= x20 (_ bv5 8))))
(assert (not (= x20 x23)))
(assert (not (= x20 (_ bv1 8))))
(assert (not (= x20 x25)))
(assert (not (= x20 x26)))
(assert (not (= x20 (_ bv3 8))))
(assert (not (= x20 x28)))
(assert (not (= x21 (_ bv5 8))))
(assert (not (= x21 x23)))
(assert (not (= x21 (_ bv1 8))))
(assert (not (= x21 x25)))
(assert (not (= x21 x26)))
(assert (not (= x21 (_ bv3 8))))
(assert (not (= x21 x28)))
(assert (not (= (_ bv5 8) x23)))
(assert (not (= (_ bv5 8) (_ bv1 8))))
(assert (not (= (_ bv5 8) x25)))
(assert (not (= (_ bv5 8) x26)))
(assert (not (= (_ bv5 8) (_ bv3 8))))
(assert (not (= (_ bv5 8) x28)))
(assert (not (= x23 (_ bv1 8))))
(assert (not (= x23 x25)))
(assert (not (= x23 x26)))
(assert (not (= x23 (_ bv3 8))))
(assert (not (= x23 x28)))
(assert (not (= (_ bv1 8) x25)))
(assert (not (= (_ bv1 8) x26)))
(assert (not (= (_ bv1 8) (_ bv3 8))))
(assert (not (= (_ bv1 8) x28)))
(assert (not (= x25 x26)))
(assert (not (= x25 (_ bv3 8))))
(assert (not (= x25 x28)))
(assert (not (= x26 (_ bv3 8))))
(assert (not (= x26 x28)))
(assert (not (= (_ bv3 8) x28)))
(assert (not (= x30 x31)))
(assert (not (= x30 x32)))
(assert (not (= x30 x33)))
(assert (not (= x30 x34)))
(assert (not (= x30 (_ bv3 8))))
(assert (not (= x30 (_ bv8 8))))
(assert (not (= x30 (_ bv4 8))))
(assert (not (= x30 x38)))
(assert (not (= x31 x32)))
(assert (not (= x31 x33)))
(assert (not (= x31 x34)))
(assert (not (= x31 (_ bv3 8))))
(assert (not (= x31 (_ bv8 8))))
(assert (not (= x31 (_ bv4 8))))
(assert (not (= x31 x38)))
(assert (not (= x32 x33)))
(assert (not (= x32 x34)))
(assert (not (= x32 (_ bv3 8))))
(assert (not (= x32 (_ bv8 8))))
(assert (not (= x32 (_ bv4 8))))
(assert (not (= x32 x38)))
(assert (not (= x33 x34)))
(assert (not (= x33 (_ bv3 8))))
(assert (not (= x33 (_ bv8 8))))
(assert (not (= x33 (_ bv4 8))))
(assert (not (= x33 x38)))
(assert (not (= x34 (_ bv3 8))))
(assert (not (= x34 (_ bv8 8))))
(assert (not (= x34 (_ bv4 8))))
(assert (not (= x34 x38)))
(assert (not (= (_ bv3 8) (_ bv8 8))))
(assert (not (= (_ bv3 8) (_ bv4 8))))
(assert (not (= (_ bv3 8) x38)))
(assert (not (= (_ bv8 8) (_ bv4 8))))
(assert (not (= (_ bv8 8) x38)))
(assert (not (= (_ bv4 8) x38)))
(assert (not (= (_ bv1 8) x41)))
(assert (not (= (_ bv1 8) x42)))
(assert (not (= (_ bv1 8) (_ bv7 8))))
(assert (not (= (_ bv1 8) x44)))
(assert (not (= (_ bv1 8) x45)))
(assert (not (= (_ bv1 8) x46)))
(assert (not (= (_ bv1 8) (_ bv5 8))))
(assert (not (= (_ bv1 8) (_ bv6 8))))
(assert (not (= x41 x42)))
(assert (not (= x41 (_ bv7 8))))
(assert (not (= x41 x44)))
(assert (not (= x41 x45)))
(assert (not (= x41 x46)))
(assert (not (= x41 (_ bv5 8))))
(assert (not (= x41 (_ bv6 8))))
(assert (not (= x42 (_ bv7 8))))
(assert (not (= x42 x44)))
(assert (not (= x42 x45)))
(assert (not (= x42 x46)))
(assert (not (= x42 (_ bv5 8))))
(assert (not (= x42 (_ bv6 8))))
(assert (not (= (_ bv7 8) x44)))
(assert (not (= (_ bv7 8) x45)))
(assert (not (= (_ bv7 8) x46)))
(assert (not (= (_ bv7 8) (_ bv5 8))))
(assert (not (= (_ bv7 8) (_ bv6 8))))
(assert (not (= x44 x45)))
(assert (not (= x44 x46)))
(assert (not (= x44 (_ bv5 8))))
(assert (not (= x44 (_ bv6 8))))
(assert (not (= x45 x46)))
(assert (not (= x45 (_ bv5 8))))
(assert (not (= x45 (_ bv6 8))))
(assert (not (= x46 (_ bv5 8))))
(assert (not (= x46 (_ bv6 8))))
(assert (not (= (_ bv5 8) (_ bv6 8))))
(assert (not (= (_ bv8 8) (_ bv9 8))))
(assert (not (= (_ bv8 8) (_ bv2 8))))
(assert (not (= (_ bv8 8) (_ bv6 8))))
(assert (not (= (_ bv8 8) x54)))
(assert (not (= (_ bv8 8) x55)))
(assert (not (= (_ bv8 8) x56)))
(assert (not (= (_ bv8 8) x57)))
(assert (not (= (_ bv8 8) x58)))
(assert (not (= (_ bv9 8) (_ bv2 8))))
(assert (not (= (_ bv9 8) (_ bv6 8))))
(assert (not (= (_ bv9 8) x54)))
(assert (not (= (_ bv9 8) x55)))
(assert (not (= (_ bv9 8) x56)))
(assert (not (= (_ bv9 8) x57)))
(assert (not (= (_ bv9 8) x58)))
(assert (not (= (_ bv2 8) (_ bv6 8))))
(assert (not (= (_ bv2 8) x54)))
(assert (not (= (_ bv2 8) x55)))
(assert (not (= (_ bv2 8) x56)))
(assert (not (= (_ bv2 8) x57)))
(assert (not (= (_ bv2 8) x58)))
(assert (not (= (_ bv6 8) x54)))
(assert (not (= (_ bv6 8) x55)))
(assert (not (= (_ bv6 8) x56)))
(assert (not (= (_ bv6 8) x57)))
(assert (not (= (_ bv6 8) x58)))
(assert (not (= x54 x55)))
(assert (not (= x54 x56)))
(assert (not (= x54 x57)))
(assert (not (= x54 x58)))
(assert (not (= x55 x56)))
(assert (not (= x55 x57)))
(assert (not (= x55 x58)))
(assert (not (= x56 x57)))
(assert (not (= x56 x58)))
(assert (not (= x57 x58)))
(assert (not (= x60 (_ bv3 8))))
(assert (not (= x60 x62)))
(assert (not (= x60 (_ bv4 8))))
(assert (not (= x60 x64)))
(assert (not (= x60 x65)))
(assert (not (= x60 x66)))
(assert (not (= x60 (_ bv6 8))))
(assert (not (= x60 x68)))
(assert (not (= (_ bv3 8) x62)))
(assert (not (= (_ bv3 8) (_ bv4 8))))
(assert (not (= (_ bv3 8) x64)))
(assert (not (= (_ bv3 8) x65)))
(assert (not (= (_ bv3 8) x66)))
(assert (not (= (_ bv3 8) (_ bv6 8))))
(assert (not (= (_ bv3 8) x68)))
(assert (not (= x62 (_ bv4 8))))
(assert (not (= x62 x64)))
(assert (not (= x62 x65)))
(assert (not (= x62 x66)))
(assert (not (= x62 (_ bv6 8))))
(assert (not (= x62 x68)))
(assert (not (= (_ bv4 8) x64)))
(assert (not (= (_ bv4 8) x65)))
(assert (not (= (_ bv4 8) x66)))
(assert (not (= (_ bv4 8) (_ bv6 8))))
(assert (not (= (_ bv4 8) x68)))
(assert (not (= x64 x65)))
(assert (not (= x64 x66)))
(assert (not (= x64 (_ bv6 8))))
(assert (not (= x64 x68)))
(assert (not (= x65 x66)))
(assert (not (= x65 (_ bv6 8))))
(assert (not (= x65 x68)))
(assert (not (= x66 (_ bv6 8))))
(assert (not (= x66 x68)))
(assert (not (= (_ bv6 8) x68)))
(assert (not (= (_ bv2 8) (_ bv7 8))))
(assert (not (= (_ bv2 8) x72)))
(assert (not (= (_ bv2 8) x73)))
(assert (not (= (_ bv2 8) x74)))
(assert (not (= (_ bv2 8) x75)))
(assert (not (= (_ bv2 8) x76)))
(assert (not (= (_ bv2 8) (_ bv9 8))))
(assert (not (= (_ bv2 8) (_ bv1 8))))
(assert (not (= (_ bv7 8) x72)))
(assert (not (= (_ bv7 8) x73)))
(assert (not (= (_ bv7 8) x74)))
(assert (not (= (_ bv7 8) x75)))
(assert (not (= (_ bv7 8) x76)))
(assert (not (= (_ bv7 8) (_ bv9 8))))
(assert (not (= (_ bv7 8) (_ bv1 8))))
(assert (not (= x72 x73)))
(assert (not (= x72 x74)))
(assert (not (= x72 x75)))
(assert (not (= x72 x76)))
(assert (not (= x72 (_ bv9 8))))
(assert (not (= x72 (_ bv1 8))))
(assert (not (= x73 x74)))
(assert (not (= x73 x75)))
(assert (not (= x73 x76)))
(assert (not (= x73 (_ bv9 8))))
(assert (not (= x73 (_ bv1 8))))
(assert (not (= x74 x75)))
(assert (not (= x74 x76)))
(assert (not (= x74 (_ bv9 8))))
(assert (not (= x74 (_ bv1 8))))
(assert (not (= x75 x76)))
(assert (not (= x75 (_ bv9 8))))
(assert (not (= x75 (_ bv1 8))))
(assert (not (= x76 (_ bv9 8))))
(assert (not (= x76 (_ bv1 8))))
(assert (not (= (_ bv9 8) (_ bv1 8))))
(assert (not (= x80 x81)))
(assert (not (= x80 x82)))
(assert (not (= x80 x83)))
(assert (not (= x80 (_ bv8 8))))
(assert (not (= x80 (_ bv2 8))))
(assert (not (= x80 x86)))
(assert (not (= x80 x87)))
(assert (not (= x80 (_ bv5 8))))
(assert (not (= x81 x82)))
(assert (not (= x81 x83)))
(assert (not (= x81 (_ bv8 8))))
(assert (not (= x81 (_ bv2 8))))
(assert (not (= x81 x86)))
(assert (not (= x81 x87)))
(assert (not (= x81 (_ bv5 8))))
(assert (not (= x82 x83)))
(assert (not (= x82 (_ bv8 8))))
(assert (not (= x82 (_ bv2 8))))
(assert (not (= x82 x86)))
(assert (not (= x82 x87)))
(assert (not (= x82 (_ bv5 8))))
(assert (not (= x83 (_ bv8 8))))
(assert (not (= x83 (_ bv2 8))))
(assert (not (= x83 x86)))
(assert (not (= x83 x87)))
(assert (not (= x83 (_ bv5 8))))
(assert (not (= (_ bv8 8) (_ bv2 8))))
(assert (not (= (_ bv8 8) x86)))
(assert (not (= (_ bv8 8) x87)))
(assert (not (= (_ bv8 8) (_ bv5 8))))
(assert (not (= (_ bv2 8) x86)))
(assert (not (= (_ bv2 8) x87)))
(assert (not (= (_ bv2 8) (_ bv5 8))))
(assert (not (= x86 x87)))
(assert (not (= x86 (_ bv5 8))))
(assert (not (= x87 (_ bv5 8))))
(assert (not (= (_ bv3 8) x10)))
(assert (not (= (_ bv3 8) x20)))
(assert (not (= (_ bv3 8) x30)))
(assert (not (= (_ bv3 8) (_ bv1 8))))
(assert (not (= (_ bv3 8) (_ bv8 8))))
(assert (not (= (_ bv3 8) x60)))
(assert (not (= (_ bv3 8) (_ bv2 8))))
(assert (not (= (_ bv3 8) x80)))
(assert (not (= x10 x20)))
(assert (not (= x10 x30)))
(assert (not (= x10 (_ bv1 8))))
(assert (not (= x10 (_ bv8 8))))
(assert (not (= x10 x60)))
(assert (not (= x10 (_ bv2 8))))
(assert (not (= x10 x80)))
(assert (not (= x20 x30)))
(assert (not (= x20 (_ bv1 8))))
(assert (not (= x20 (_ bv8 8))))
(assert (not (= x20 x60)))
(assert (not (= x20 (_ bv2 8))))
(assert (not (= x20 x80)))
(assert (not (= x30 (_ bv1 8))))
(assert (not (= x30 (_ bv8 8))))
(assert (not (= x30 x60)))
(assert (not (= x30 (_ bv2 8))))
(assert (not (= x30 x80)))
(assert (not (= (_ bv1 8) (_ bv8 8))))
(assert (not (= (_ bv1 8) x60)))
(assert (not (= (_ bv1 8) (_ bv2 8))))
(assert (not (= (_ bv1 8) x80)))
(assert (not (= (_ bv8 8) x60)))
(assert (not (= (_ bv8 8) (_ bv2 8))))
(assert (not (= (_ bv8 8) x80)))
(assert (not (= x60 (_ bv2 8))))
(assert (not (= x60 x80)))
(assert (not (= (_ bv2 8) x80)))
(assert (not (= (_ bv6 8) (_ bv8 8))))
(assert (not (= (_ bv6 8) x21)))
(assert (not (= (_ bv6 8) x31)))
(assert (not (= (_ bv6 8) x41)))
(assert (not (= (_ bv6 8) (_ bv9 8))))
(assert (not (= (_ bv6 8) (_ bv3 8))))
(assert (not (= (_ bv6 8) (_ bv7 8))))
(assert (not (= (_ bv6 8) x81)))
(assert (not (= (_ bv8 8) x21)))
(assert (not (= (_ bv8 8) x31)))
(assert (not (= (_ bv8 8) x41)))
(assert (not (= (_ bv8 8) (_ bv9 8))))
(assert (not (= (_ bv8 8) (_ bv3 8))))
(assert (not (= (_ bv8 8) (_ bv7 8))))
(assert (not (= (_ bv8 8) x81)))
(assert (not (= x21 x31)))
(assert (not (= x21 x41)))
(assert (not (= x21 (_ bv9 8))))
(assert (not (= x21 (_ bv3 8))))
(assert (not (= x21 (_ bv7 8))))
(assert (not (= x21 x81)))
(assert (not (= x31 x41)))
(assert (not (= x31 (_ bv9 8))))
(assert (not (= x31 (_ bv3 8))))
(assert (not (= x31 (_ bv7 8))))
(assert (not (= x31 x81)))
(assert (not (= x41 (_ bv9 8))))
(assert (not (= x41 (_ bv3 8))))
(assert (not (= x41 (_ bv7 8))))
(assert (not (= x41 x81)))
(assert (not (= (_ bv9 8) (_ bv3 8))))
(assert (not (= (_ bv9 8) (_ bv7 8))))
(assert (not (= (_ bv9 8) x81)))
(assert (not (= (_ bv3 8) (_ bv7 8))))
(assert (not (= (_ bv3 8) x81)))
(assert (not (= (_ bv7 8) x81)))
(assert (not (= (_ bv4 8) (_ bv1 8))))
(assert (not (= (_ bv4 8) (_ bv5 8))))
(assert (not (= (_ bv4 8) x32)))
(assert (not (= (_ bv4 8) x42)))
(assert (not (= (_ bv4 8) (_ bv2 8))))
(assert (not (= (_ bv4 8) x62)))
(assert (not (= (_ bv4 8) x72)))
(assert (not (= (_ bv4 8) x82)))
(assert (not (= (_ bv1 8) (_ bv5 8))))
(assert (not (= (_ bv1 8) x32)))
(assert (not (= (_ bv1 8) x42)))
(assert (not (= (_ bv1 8) (_ bv2 8))))
(assert (not (= (_ bv1 8) x62)))
(assert (not (= (_ bv1 8) x72)))
(assert (not (= (_ bv1 8) x82)))
(assert (not (= (_ bv5 8) x32)))
(assert (not (= (_ bv5 8) x42)))
(assert (not (= (_ bv5 8) (_ bv2 8))))
(assert (not (= (_ bv5 8) x62)))
(assert (not (= (_ bv5 8) x72)))
(assert (not (= (_ bv5 8) x82)))
(assert (not (= x32 x42)))
(assert (not (= x32 (_ bv2 8))))
(assert (not (= x32 x62)))
(assert (not (= x32 x72)))
(assert (not (= x32 x82)))
(assert (not (= x42 (_ bv2 8))))
(assert (not (= x42 x62)))
(assert (not (= x42 x72)))
(assert (not (= x42 x82)))
(assert (not (= (_ bv2 8) x62)))
(assert (not (= (_ bv2 8) x72)))
(assert (not (= (_ bv2 8) x82)))
(assert (not (= x62 x72)))
(assert (not (= x62 x82)))
(assert (not (= x72 x82)))
(assert (not (= x03 x13)))
(assert (not (= x03 x23)))
(assert (not (= x03 x33)))
(assert (not (= x03 (_ bv7 8))))
(assert (not (= x03 (_ bv6 8))))
(assert (not (= x03 (_ bv4 8))))
(assert (not (= x03 x73)))
(assert (not (= x03 x83)))
(assert (not (= x13 x23)))
(assert (not (= x13 x33)))
(assert (not (= x13 (_ bv7 8))))
(assert (not (= x13 (_ bv6 8))))
(assert (not (= x13 (_ bv4 8))))
(assert (not (= x13 x73)))
(assert (not (= x13 x83)))
(assert (not (= x23 x33)))
(assert (not (= x23 (_ bv7 8))))
(assert (not (= x23 (_ bv6 8))))
(assert (not (= x23 (_ bv4 8))))
(assert (not (= x23 x73)))
(assert (not (= x23 x83)))
(assert (not (= x33 (_ bv7 8))))
(assert (not (= x33 (_ bv6 8))))
(assert (not (= x33 (_ bv4 8))))
(assert (not (= x33 x73)))
(assert (not (= x33 x83)))
(assert (not (= (_ bv7 8) (_ bv6 8))))
(assert (not (= (_ bv7 8) (_ bv4 8))))
(assert (not (= (_ bv7 8) x73)))
(assert (not (= (_ bv7 8) x83)))
(assert (not (= (_ bv6 8) (_ bv4 8))))
(assert (not (= (_ bv6 8) x73)))
(assert (not (= (_ bv6 8) x83)))
(assert (not (= (_ bv4 8) x73)))
(assert (not (= (_ bv4 8) x83)))
(assert (not (= x73 x83)))
(assert (not (= (_ bv5 8) (_ bv6 8))))
(assert (not (= (_ bv5 8) (_ bv1 8))))
(assert (not (= (_ bv5 8) x34)))
(assert (not (= (_ bv5 8) x44)))
(assert (not (= (_ bv5 8) x54)))
(assert (not (= (_ bv5 8) x64)))
(assert (not (= (_ bv5 8) x74)))
(assert (not (= (_ bv5 8) (_ bv8 8))))
(assert (not (= (_ bv6 8) (_ bv1 8))))
(assert (not (= (_ bv6 8) x34)))
(assert (not (= (_ bv6 8) x44)))
(assert (not (= (_ bv6 8) x54)))
(assert (not (= (_ bv6 8) x64)))
(assert (not (= (_ bv6 8) x74)))
(assert (not (= (_ bv6 8) (_ bv8 8))))
(assert (not (= (_ bv1 8) x34)))
(assert (not (= (_ bv1 8) x44)))
(assert (not (= (_ bv1 8) x54)))
(assert (not (= (_ bv1 8) x64)))
(assert (not (= (_ bv1 8) x74)))
(assert (not (= (_ bv1 8) (_ bv8 8))))
(assert (not (= x34 x44)))
(assert (not (= x34 x54)))
(assert (not (= x34 x64)))
(assert (not (= x34 x74)))
(assert (not (= x34 (_ bv8 8))))
(assert (not (= x44 x54)))
(assert (not (= x44 x64)))
(assert (not (= x44 x74)))
(assert (not (= x44 (_ bv8 8))))
(assert (not (= x54 x64)))
(assert (not (= x54 x74)))
(assert (not (= x54 (_ bv8 8))))
(assert (not (= x64 x74)))
(assert (not (= x64 (_ bv8 8))))
(assert (not (= x74 (_ bv8 8))))
(assert (not (= x05 (_ bv4 8))))
(assert (not (= x05 x25)))
(assert (not (= x05 (_ bv3 8))))
(assert (not (= x05 x45)))
(assert (not (= x05 x55)))
(assert (not (= x05 x65)))
(assert (not (= x05 x75)))
(assert (not (= x05 (_ bv2 8))))
(assert (not (= (_ bv4 8) x25)))
(assert (not (= (_ bv4 8) (_ bv3 8))))
(assert (not (= (_ bv4 8) x45)))
(assert (not (= (_ bv4 8) x55)))
(assert (not (= (_ bv4 8) x65)))
(assert (not (= (_ bv4 8) x75)))
(assert (not (= (_ bv4 8) (_ bv2 8))))
(assert (not (= x25 (_ bv3 8))))
(assert (not (= x25 x45)))
(assert (not (= x25 x55)))
(assert (not (= x25 x65)))
(assert (not (= x25 x75)))
(assert (not (= x25 (_ bv2 8))))
(assert (not (= (_ bv3 8) x45)))
(assert (not (= (_ bv3 8) x55)))
(assert (not (= (_ bv3 8) x65)))
(assert (not (= (_ bv3 8) x75)))
(assert (not (= (_ bv3 8) (_ bv2 8))))
(assert (not (= x45 x55)))
(assert (not (= x45 x65)))
(assert (not (= x45 x75)))
(assert (not (= x45 (_ bv2 8))))
(assert (not (= x55 x65)))
(assert (not (= x55 x75)))
(assert (not (= x55 (_ bv2 8))))
(assert (not (= x65 x75)))
(assert (not (= x65 (_ bv2 8))))
(assert (not (= x75 (_ bv2 8))))
(assert (not (= x06 x16)))
(assert (not (= x06 x26)))
(assert (not (= x06 (_ bv8 8))))
(assert (not (= x06 x46)))
(assert (not (= x06 x56)))
(assert (not (= x06 x66)))
(assert (not (= x06 x76)))
(assert (not (= x06 x86)))
(assert (not (= x16 x26)))
(assert (not (= x16 (_ bv8 8))))
(assert (not (= x16 x46)))
(assert (not (= x16 x56)))
(assert (not (= x16 x66)))
(assert (not (= x16 x76)))
(assert (not (= x16 x86)))
(assert (not (= x26 (_ bv8 8))))
(assert (not (= x26 x46)))
(assert (not (= x26 x56)))
(assert (not (= x26 x66)))
(assert (not (= x26 x76)))
(assert (not (= x26 x86)))
(assert (not (= (_ bv8 8) x46)))
(assert (not (= (_ bv8 8) x56)))
(assert (not (= (_ bv8 8) x66)))
(assert (not (= (_ bv8 8) x76)))
(assert (not (= (_ bv8 8) x86)))
(assert (not (= x46 x56)))
(assert (not (= x46 x66)))
(assert (not (= x46 x76)))
(assert (not (= x46 x86)))
(assert (not (= x56 x66)))
(assert (not (= x56 x76)))
(assert (not (= x56 x86)))
(assert (not (= x66 x76)))
(assert (not (= x66 x86)))
(assert (not (= x76 x86)))
(assert (not (= x07 x17)))
(assert (not (= x07 (_ bv3 8))))
(assert (not (= x07 (_ bv4 8))))
(assert (not (= x07 (_ bv5 8))))
(assert (not (= x07 x57)))
(assert (not (= x07 (_ bv6 8))))
(assert (not (= x07 (_ bv9 8))))
(assert (not (= x07 x87)))
(assert (not (= x17 (_ bv3 8))))
(assert (not (= x17 (_ bv4 8))))
(assert (not (= x17 (_ bv5 8))))
(assert (not (= x17 x57)))
(assert (not (= x17 (_ bv6 8))))
(assert (not (= x17 (_ bv9 8))))
(assert (not (= x17 x87)))
(assert (not (= (_ bv3 8) (_ bv4 8))))
(assert (not (= (_ bv3 8) (_ bv5 8))))
(assert (not (= (_ bv3 8) x57)))
(assert (not (= (_ bv3 8) (_ bv6 8))))
(assert (not (= (_ bv3 8) (_ bv9 8))))
(assert (not (= (_ bv3 8) x87)))
(assert (not (= (_ bv4 8) (_ bv5 8))))
(assert (not (= (_ bv4 8) x57)))
(assert (not (= (_ bv4 8) (_ bv6 8))))
(assert (not (= (_ bv4 8) (_ bv9 8))))
(assert (not (= (_ bv4 8) x87)))
(assert (not (= (_ bv5 8) x57)))
(assert (not (= (_ bv5 8) (_ bv6 8))))
(assert (not (= (_ bv5 8) (_ bv9 8))))
(assert (not (= (_ bv5 8) x87)))
(assert (not (= x57 (_ bv6 8))))
(assert (not (= x57 (_ bv9 8))))
(assert (not (= x57 x87)))
(assert (not (= (_ bv6 8) (_ bv9 8))))
(assert (not (= (_ bv6 8) x87)))
(assert (not (= (_ bv9 8) x87)))
(assert (not (= x08 (_ bv7 8))))
(assert (not (= x08 x28)))
(assert (not (= x08 x38)))
(assert (not (= x08 (_ bv6 8))))
(assert (not (= x08 x58)))
(assert (not (= x08 x68)))
(assert (not (= x08 (_ bv1 8))))
(assert (not (= x08 (_ bv5 8))))
(assert (not (= (_ bv7 8) x28)))
(assert (not (= (_ bv7 8) x38)))
(assert (not (= (_ bv7 8) (_ bv6 8))))
(assert (not (= (_ bv7 8) x58)))
(assert (not (= (_ bv7 8) x68)))
(assert (not (= (_ bv7 8) (_ bv1 8))))
(assert (not (= (_ bv7 8) (_ bv5 8))))
(assert (not (= x28 x38)))
(assert (not (= x28 (_ bv6 8))))
(assert (not (= x28 x58)))
(assert (not (= x28 x68)))
(assert (not (= x28 (_ bv1 8))))
(assert (not (= x28 (_ bv5 8))))
(assert (not (= x38 (_ bv6 8))))
(assert (not (= x38 x58)))
(assert (not (= x38 x68)))
(assert (not (= x38 (_ bv1 8))))
(assert (not (= x38 (_ bv5 8))))
(assert (not (= (_ bv6 8) x58)))
(assert (not (= (_ bv6 8) x68)))
(assert (not (= (_ bv6 8) (_ bv1 8))))
(assert (not (= (_ bv6 8) (_ bv5 8))))
(assert (not (= x58 x68)))
(assert (not (= x58 (_ bv1 8))))
(assert (not (= x58 (_ bv5 8))))
(assert (not (= x68 (_ bv1 8))))
(assert (not (= x68 (_ bv5 8))))
(assert (not (= (_ bv1 8) (_ bv5 8))))
(assert (not (= (_ bv3 8) (_ bv6 8))))
(assert (not (= (_ bv3 8) (_ bv4 8))))
(assert (not (= (_ bv3 8) x10)))
(assert (not (= (_ bv3 8) (_ bv8 8))))
(assert (not (= (_ bv3 8) (_ bv1 8))))
(assert (not (= (_ bv3 8) x20)))
(assert (not (= (_ bv3 8) x21)))
(assert (not (= (_ bv3 8) (_ bv5 8))))
(assert (not (= (_ bv6 8) (_ bv4 8))))
(assert (not (= (_ bv6 8) x10)))
(assert (not (= (_ bv6 8) (_ bv8 8))))
(assert (not (= (_ bv6 8) (_ bv1 8))))
(assert (not (= (_ bv6 8) x20)))
(assert (not (= (_ bv6 8) x21)))
(assert (not (= (_ bv6 8) (_ bv5 8))))
(assert (not (= (_ bv4 8) x10)))
(assert (not (= (_ bv4 8) (_ bv8 8))))
(assert (not (= (_ bv4 8) (_ bv1 8))))
(assert (not (= (_ bv4 8) x20)))
(assert (not (= (_ bv4 8) x21)))
(assert (not (= (_ bv4 8) (_ bv5 8))))
(assert (not (= x10 (_ bv8 8))))
(assert (not (= x10 (_ bv1 8))))
(assert (not (= x10 x20)))
(assert (not (= x10 x21)))
(assert (not (= x10 (_ bv5 8))))
(assert (not (= (_ bv8 8) (_ bv1 8))))
(assert (not (= (_ bv8 8) x20)))
(assert (not (= (_ bv8 8) x21)))
(assert (not (= (_ bv8 8) (_ bv5 8))))
(assert (not (= (_ bv1 8) x20)))
(assert (not (= (_ bv1 8) x21)))
(assert (not (= (_ bv1 8) (_ bv5 8))))
(assert (not (= x20 x21)))
(assert (not (= x20 (_ bv5 8))))
(assert (not (= x21 (_ bv5 8))))
(assert (not (= x03 (_ bv5 8))))
(assert (not (= x03 x05)))
(assert (not (= x03 x13)))
(assert (not (= x03 (_ bv6 8))))
(assert (not (= x03 (_ bv4 8))))
(assert (not (= x03 x23)))
(assert (not (= x03 (_ bv1 8))))
(assert (not (= x03 x25)))
(assert (not (= (_ bv5 8) x05)))
(assert (not (= (_ bv5 8) x13)))
(assert (not (= (_ bv5 8) (_ bv6 8))))
(assert (not (= (_ bv5 8) (_ bv4 8))))
(assert (not (= (_ bv5 8) x23)))
(assert (not (= (_ bv5 8) (_ bv1 8))))
(assert (not (= (_ bv5 8) x25)))
(assert (not (= x05 x13)))
(assert (not (= x05 (_ bv6 8))))
(assert (not (= x05 (_ bv4 8))))
(assert (not (= x05 x23)))
(assert (not (= x05 (_ bv1 8))))
(assert (not (= x05 x25)))
(assert (not (= x13 (_ bv6 8))))
(assert (not (= x13 (_ bv4 8))))
(assert (not (= x13 x23)))
(assert (not (= x13 (_ bv1 8))))
(assert (not (= x13 x25)))
(assert (not (= (_ bv6 8) (_ bv4 8))))
(assert (not (= (_ bv6 8) x23)))
(assert (not (= (_ bv6 8) (_ bv1 8))))
(assert (not (= (_ bv6 8) x25)))
(assert (not (= (_ bv4 8) x23)))
(assert (not (= (_ bv4 8) (_ bv1 8))))
(assert (not (= (_ bv4 8) x25)))
(assert (not (= x23 (_ bv1 8))))
(assert (not (= x23 x25)))
(assert (not (= (_ bv1 8) x25)))
(assert (not (= x06 x07)))
(assert (not (= x06 x08)))
(assert (not (= x06 x16)))
(assert (not (= x06 x17)))
(assert (not (= x06 (_ bv7 8))))
(assert (not (= x06 x26)))
(assert (not (= x06 (_ bv3 8))))
(assert (not (= x06 x28)))
(assert (not (= x07 x08)))
(assert (not (= x07 x16)))
(assert (not (= x07 x17)))
(assert (not (= x07 (_ bv7 8))))
(assert (not (= x07 x26)))
(assert (not (= x07 (_ bv3 8))))
(assert (not (= x07 x28)))
(assert (not (= x08 x16)))
(assert (not (= x08 x17)))
(assert (not (= x08 (_ bv7 8))))
(assert (not (= x08 x26)))
(assert (not (= x08 (_ bv3 8))))
(assert (not (= x08 x28)))
(assert (not (= x16 x17)))
(assert (not (= x16 (_ bv7 8))))
(assert (not (= x16 x26)))
(assert (not (= x16 (_ bv3 8))))
(assert (not (= x16 x28)))
(assert (not (= x17 (_ bv7 8))))
(assert (not (= x17 x26)))
(assert (not (= x17 (_ bv3 8))))
(assert (not (= x17 x28)))
(assert (not (= (_ bv7 8) x26)))
(assert (not (= (_ bv7 8) (_ bv3 8))))
(assert (not (= (_ bv7 8) x28)))
(assert (not (= x26 (_ bv3 8))))
(assert (not (= x26 x28)))
(assert (not (= (_ bv3 8) x28)))
(assert (not (= x30 x31)))
(assert (not (= x30 x32)))
(assert (not (= x30 (_ bv1 8))))
(assert (not (= x30 x41)))
(assert (not (= x30 x42)))
(assert (not (= x30 (_ bv8 8))))
(assert (not (= x30 (_ bv9 8))))
(assert (not (= x30 (_ bv2 8))))
(assert (not (= x31 x32)))
(assert (not (= x31 (_ bv1 8))))
(assert (not (= x31 x41)))
(assert (not (= x31 x42)))
(assert (not (= x31 (_ bv8 8))))
(assert (not (= x31 (_ bv9 8))))
(assert (not (= x31 (_ bv2 8))))
(assert (not (= x32 (_ bv1 8))))
(assert (not (= x32 x41)))
(assert (not (= x32 x42)))
(assert (not (= x32 (_ bv8 8))))
(assert (not (= x32 (_ bv9 8))))
(assert (not (= x32 (_ bv2 8))))
(assert (not (= (_ bv1 8) x41)))
(assert (not (= (_ bv1 8) x42)))
(assert (not (= (_ bv1 8) (_ bv8 8))))
(assert (not (= (_ bv1 8) (_ bv9 8))))
(assert (not (= (_ bv1 8) (_ bv2 8))))
(assert (not (= x41 x42)))
(assert (not (= x41 (_ bv8 8))))
(assert (not (= x41 (_ bv9 8))))
(assert (not (= x41 (_ bv2 8))))
(assert (not (= x42 (_ bv8 8))))
(assert (not (= x42 (_ bv9 8))))
(assert (not (= x42 (_ bv2 8))))
(assert (not (= (_ bv8 8) (_ bv9 8))))
(assert (not (= (_ bv8 8) (_ bv2 8))))
(assert (not (= (_ bv9 8) (_ bv2 8))))
(assert (not (= x33 x34)))
(assert (not (= x33 (_ bv3 8))))
(assert (not (= x33 (_ bv7 8))))
(assert (not (= x33 x44)))
(assert (not (= x33 x45)))
(assert (not (= x33 (_ bv6 8))))
(assert (not (= x33 x54)))
(assert (not (= x33 x55)))
(assert (not (= x34 (_ bv3 8))))
(assert (not (= x34 (_ bv7 8))))
(assert (not (= x34 x44)))
(assert (not (= x34 x45)))
(assert (not (= x34 (_ bv6 8))))
(assert (not (= x34 x54)))
(assert (not (= x34 x55)))
(assert (not (= (_ bv3 8) (_ bv7 8))))
(assert (not (= (_ bv3 8) x44)))
(assert (not (= (_ bv3 8) x45)))
(assert (not (= (_ bv3 8) (_ bv6 8))))
(assert (not (= (_ bv3 8) x54)))
(assert (not (= (_ bv3 8) x55)))
(assert (not (= (_ bv7 8) x44)))
(assert (not (= (_ bv7 8) x45)))
(assert (not (= (_ bv7 8) (_ bv6 8))))
(assert (not (= (_ bv7 8) x54)))
(assert (not (= (_ bv7 8) x55)))
(assert (not (= x44 x45)))
(assert (not (= x44 (_ bv6 8))))
(assert (not (= x44 x54)))
(assert (not (= x44 x55)))
(assert (not (= x45 (_ bv6 8))))
(assert (not (= x45 x54)))
(assert (not (= x45 x55)))
(assert (not (= (_ bv6 8) x54)))
(assert (not (= (_ bv6 8) x55)))
(assert (not (= x54 x55)))
(assert (not (= (_ bv8 8) (_ bv4 8))))
(assert (not (= (_ bv8 8) x38)))
(assert (not (= (_ bv8 8) x46)))
(assert (not (= (_ bv8 8) (_ bv5 8))))
(assert (not (= (_ bv8 8) (_ bv6 8))))
(assert (not (= (_ bv8 8) x56)))
(assert (not (= (_ bv8 8) x57)))
(assert (not (= (_ bv8 8) x58)))
(assert (not (= (_ bv4 8) x38)))
(assert (not (= (_ bv4 8) x46)))
(assert (not (= (_ bv4 8) (_ bv5 8))))
(assert (not (= (_ bv4 8) (_ bv6 8))))
(assert (not (= (_ bv4 8) x56)))
(assert (not (= (_ bv4 8) x57)))
(assert (not (= (_ bv4 8) x58)))
(assert (not (= x38 x46)))
(assert (not (= x38 (_ bv5 8))))
(assert (not (= x38 (_ bv6 8))))
(assert (not (= x38 x56)))
(assert (not (= x38 x57)))
(assert (not (= x38 x58)))
(assert (not (= x46 (_ bv5 8))))
(assert (not (= x46 (_ bv6 8))))
(assert (not (= x46 x56)))
(assert (not (= x46 x57)))
(assert (not (= x46 x58)))
(assert (not (= (_ bv5 8) (_ bv6 8))))
(assert (not (= (_ bv5 8) x56)))
(assert (not (= (_ bv5 8) x57)))
(assert (not (= (_ bv5 8) x58)))
(assert (not (= (_ bv6 8) x56)))
(assert (not (= (_ bv6 8) x57)))
(assert (not (= (_ bv6 8) x58)))
(assert (not (= x56 x57)))
(assert (not (= x56 x58)))
(assert (not (= x57 x58)))
(assert (not (= x60 (_ bv3 8))))
(assert (not (= x60 x62)))
(assert (not (= x60 (_ bv2 8))))
(assert (not (= x60 (_ bv7 8))))
(assert (not (= x60 x72)))
(assert (not (= x60 x80)))
(assert (not (= x60 x81)))
(assert (not (= x60 x82)))
(assert (not (= (_ bv3 8) x62)))
(assert (not (= (_ bv3 8) (_ bv2 8))))
(assert (not (= (_ bv3 8) (_ bv7 8))))
(assert (not (= (_ bv3 8) x72)))
(assert (not (= (_ bv3 8) x80)))
(assert (not (= (_ bv3 8) x81)))
(assert (not (= (_ bv3 8) x82)))
(assert (not (= x62 (_ bv2 8))))
(assert (not (= x62 (_ bv7 8))))
(assert (not (= x62 x72)))
(assert (not (= x62 x80)))
(assert (not (= x62 x81)))
(assert (not (= x62 x82)))
(assert (not (= (_ bv2 8) (_ bv7 8))))
(assert (not (= (_ bv2 8) x72)))
(assert (not (= (_ bv2 8) x80)))
(assert (not (= (_ bv2 8) x81)))
(assert (not (= (_ bv2 8) x82)))
(assert (not (= (_ bv7 8) x72)))
(assert (not (= (_ bv7 8) x80)))
(assert (not (= (_ bv7 8) x81)))
(assert (not (= (_ bv7 8) x82)))
(assert (not (= x72 x80)))
(assert (not (= x72 x81)))
(assert (not (= x72 x82)))
(assert (not (= x80 x81)))
(assert (not (= x80 x82)))
(assert (not (= x81 x82)))
(assert (not (= (_ bv4 8) x64)))
(assert (not (= (_ bv4 8) x65)))
(assert (not (= (_ bv4 8) x73)))
(assert (not (= (_ bv4 8) x74)))
(assert (not (= (_ bv4 8) x75)))
(assert (not (= (_ bv4 8) x83)))
(assert (not (= (_ bv4 8) (_ bv8 8))))
(assert (not (= (_ bv4 8) (_ bv2 8))))
(assert (not (= x64 x65)))
(assert (not (= x64 x73)))
(assert (not (= x64 x74)))
(assert (not (= x64 x75)))
(assert (not (= x64 x83)))
(assert (not (= x64 (_ bv8 8))))
(assert (not (= x64 (_ bv2 8))))
(assert (not (= x65 x73)))
(assert (not (= x65 x74)))
(assert (not (= x65 x75)))
(assert (not (= x65 x83)))
(assert (not (= x65 (_ bv8 8))))
(assert (not (= x65 (_ bv2 8))))
(assert (not (= x73 x74)))
(assert (not (= x73 x75)))
(assert (not (= x73 x83)))
(assert (not (= x73 (_ bv8 8))))
(assert (not (= x73 (_ bv2 8))))
(assert (not (= x74 x75)))
(assert (not (= x74 x83)))
(assert (not (= x74 (_ bv8 8))))
(assert (not (= x74 (_ bv2 8))))
(assert (not (= x75 x83)))
(assert (not (= x75 (_ bv8 8))))
(assert (not (= x75 (_ bv2 8))))
(assert (not (= x83 (_ bv8 8))))
(assert (not (= x83 (_ bv2 8))))
(assert (not (= (_ bv8 8) (_ bv2 8))))
(assert (not (= x66 (_ bv6 8))))
(assert (not (= x66 x68)))
(assert (not (= x66 x76)))
(assert (not (= x66 (_ bv9 8))))
(assert (not (= x66 (_ bv1 8))))
(assert (not (= x66 x86)))
(assert (not (= x66 x87)))
(assert (not (= x66 (_ bv5 8))))
(assert (not (= (_ bv6 8) x68)))
(assert (not (= (_ bv6 8) x76)))
(assert (not (= (_ bv6 8) (_ bv9 8))))
(assert (not (= (_ bv6 8) (_ bv1 8))))
(assert (not (= (_ bv6 8) x86)))
(assert (not (= (_ bv6 8) x87)))
(assert (not (= (_ bv6 8) (_ bv5 8))))
(assert (not (= x68 x76)))
(assert (not (= x68 (_ bv9 8))))
(assert (not (= x68 (_ bv1 8))))
(assert (not (= x68 x86)))
(assert (not (= x68 x87)))
(assert (not (= x68 (_ bv5 8))))
(assert (not (= x76 (_ bv9 8))))
(assert (not (= x76 (_ bv1 8))))
(assert (not (= x76 x86)))
(assert (not (= x76 x87)))
(assert (not (= x76 (_ bv5 8))))
(assert (not (= (_ bv9 8) (_ bv1 8))))
(assert (not (= (_ bv9 8) x86)))
(assert (not (= (_ bv9 8) x87)))
(assert (not (= (_ bv9 8) (_ bv5 8))))
(assert (not (= (_ bv1 8) x86)))
(assert (not (= (_ bv1 8) x87)))
(assert (not (= (_ bv1 8) (_ bv5 8))))
(assert (not (= x86 x87)))
(assert (not (= x86 (_ bv5 8))))
(assert (not (= x87 (_ bv5 8))))
(check-sat)
(exit)
